scenarios/sols/small/emicp_milp/006.sol
objective value:                     2.75060737922669
x(0,2,0)                                            1 	(obj:0)
x(1,4,0)                                            1 	(obj:0)
x(2,1,0)                                            1 	(obj:0)
x(3,9,0)                                            1 	(obj:0)
x(4,3,0)                                            1 	(obj:0)
x(9,10,0)                                           1 	(obj:0)
x(10,0,0)                                           1 	(obj:0)
xc(0,5)                                             1 	(obj:0)
xc(1,2)                                             1 	(obj:0)
xc(4,1)                                             1 	(obj:0)
u(1,0)                              0.600555392136914 	(obj:0)
u(2,0)                              0.400732497033021 	(obj:0)
u(3,0)                              0.956785600037189 	(obj:0)
u(4,0)                              0.871025957561736 	(obj:0)
u(9,0)                               1.79838566023559 	(obj:0)
u(10,0)                              2.75060737922669 	(obj:0)
u(11,0)                               0.4721763531455 	(obj:0)
u(12,0)                               0.3499568323474 	(obj:0)
u(13,0)                                0.755188730235 	(obj:0)
u(14,0)                             0.690558159768599 	(obj:0)
u(15,0)                             0.229320875303699 	(obj:0)
u(16,0)                               0.3967409820167 	(obj:0)
u(17,0)                             0.329484334042901 	(obj:0)
u(18,0)                             0.635693956960999 	(obj:0)
u(19,0)                                 0.86729416679 	(obj:0)
f(0,2,0)                                            1 	(obj:0)
f(1,4,0)                                            1 	(obj:0)
f(1,4,1)                                            1 	(obj:0)
f(1,4,2)                                            1 	(obj:0)
f(2,1,0)                                            1 	(obj:0)
f(2,1,2)                                            1 	(obj:0)
f(3,9,0)                                            1 	(obj:0)
f(3,9,1)                                            1 	(obj:0)
f(3,9,2)                                            1 	(obj:0)
f(3,9,3)                                            1 	(obj:0)
f(3,9,4)                                            1 	(obj:0)
f(4,3,0)                                            1 	(obj:0)
f(4,3,1)                                            1 	(obj:0)
f(4,3,2)                                            1 	(obj:0)
f(4,3,4)                                            1 	(obj:0)
z_r(0,)                              2.75060737922669 	(obj:0)
z                                    2.75060737922669 	(obj:1)
