scenarios/sols/small/emicp_milp/006.out
b'The following solver is parallelized by UG version 0.9.1 [GitHash: ]\n'
b'SCIP version 7.0.2 [precision: 8 byte] [memory: block] [mode: optimized] [LP solver: SoPlex 5.0.2] [GitHash: e9d280a398]\n'
b'Copyright (C) 2002-2020 Konrad-Zuse-Zentrum fuer Informationstechnik Berlin (ZIB)\n'
b'External codes: \n'
b'  Readline 7.0         GNU library for command line editing (gnu.org/s/readline)\n'
b'  SoPlex 5.0.2         Linear Programming Solver developed at Zuse Institute Berlin (soplex.zib.de) [GitHash: e24c304e]\n'
b'  CppAD 20180000.0     Algorithmic Differentiation of C++ algorithms developed by B. Bell (www.coin-or.org/CppAD)\n'
b'  ZLIB 1.2.11          General purpose compression library by J. Gailly and M. Adler (zlib.net)\n'
b'  GMP 6.1.2            GNU Multiple Precision Arithmetic Library developed by T. Granlund (gmplib.org)\n'
b'  ZIMPL 3.4.0          Zuse Institute Mathematical Programming Language developed by T. Koch (zimpl.zib.de)\n'
b'Default LC presolving (default).\n'
b'Original Problem   :\n'
b'  Problem name     : 006\n'
b'  Variables        : 4863 (800 binary, 0 integer, 0 implicit integer, 4063 continuous)\n'
b'  Constraints      : 13386\n'
b'  Objective sense  : minimize\n'
b'Presolved Problem  :\n'
b'  Variables        : 560 (100 binary, 0 integer, 0 implicit integer, 460 continuous)\n'
b'  Constraints      : 626\n'
b'Constraints        : Number\n'
b'  varbound         : 390 \n'
b'  knapsack         : 2 \n'
b'  setppc           : 25 \n'
b'  linear           : 208 \n'
b'  logicor          : 1 \n'
b'** Instance transfer method used: 0\n'
b'** ParaScipInstance copy does not increase the number of variables. **\n'
b'LC is working with racing ramp-up and with rebuilding tree after racing.\n'
b'                               Nodes    Active                                            \n'
b'     Time          Nodes        Left   Solvers     Best Integer        Best Node       Gap     Best Node(S)    Gap(S)\n'
b'*       0              2           1         8           4.9114           1.7514   180.43%\n'
b'*       0              2           1         8           3.8915           1.7514   122.20%\n'
b'*       1              2           1         8           2.8166           1.7514    60.82%\n'
b'Racing ramp-up finished after 2.75 seconds. Selected strategy 3.\n'
b'        5           6341         672         8           2.8166           1.7514     60.82%           1.7514     60.82%\n'
b'*       7          13757         966         8           2.7506           1.7514     57.05%           1.7514     57.05%\n'
b'       10          20582           0         1           2.7506           2.7188      1.17%           2.7188      1.17%\n'
b'       11          20582           0         0           2.7506           2.7506      0.00%\n'
b'SCIP Status        : problem is solved\n'
b'Total Time         : 10.63\n'
b'  solving          : 10.63\n'
b'  presolving       : 0.04 (included in solving)\n'
b'B&B Tree           :\n'
b'  nodes (total)    : 20582\n'
b'Solution           :\n'
b'  Solutions found  : 4\n'
b'  Primal Bound     : +2.75060737922669e+00\n'
b'  Dual Bound       : +2.75060737922669e+00\n'
b'Gap                : 0.00000 %\n'
